data/solutions/recovery/wellformed/intermediate/binding/wellformed_intermediate_instance73/65.sol
Elapsed time: 0.06
Upper bound: 4419.0
Planning weighted value: 219088924.0
C[0]=4419.0
C[1]=4419.0
C[2]=4367.0
C[3]=4343.0
C[4]=4305.0
C[5]=4124.0
C[6]=4077.0
C[7]=4044.0
C[8]=3742.0
C[9]=3155.0
C[10]=2999.0
C[11]=2956.0
C[12]=2924.0
C[13]=2561.0
C[14]=2127.0
C[15]=0.0
y[0]=0
y[1]=5
y[2]=10
y[3]=13
y[4]=8
y[5]=1
y[6]=2
y[7]=0
y[8]=4
y[9]=8
y[10]=1
y[11]=4
y[12]=14
y[13]=1
y[14]=0
y[15]=9
y[16]=2
y[17]=2
y[18]=5
y[19]=2
y[20]=3
y[21]=3
y[22]=0
y[23]=12
y[24]=6
y[25]=2
y[26]=14
y[27]=9
y[28]=14
y[29]=7
y[30]=7
y[31]=0
y[32]=5
y[33]=13
y[34]=14
y[35]=11
y[36]=7
y[37]=2
y[38]=1
y[39]=2
y[40]=5
y[41]=4
y[42]=2
y[43]=13
y[44]=11
y[45]=6
y[46]=2
y[47]=2
y[48]=3
y[49]=6
y[50]=12
y[51]=1
y[52]=9
y[53]=8
y[54]=11
y[55]=12
y[56]=14
y[57]=4
y[58]=12
y[59]=0
y[60]=10
y[61]=2
y[62]=10
y[63]=13
y[64]=1
y[65]=7
y[66]=3
y[67]=3
y[68]=5
y[69]=13
y[70]=10
y[71]=4
y[72]=4
y[73]=10
y[74]=1
y[75]=7
y[76]=4
y[77]=2
y[78]=2
y[79]=9
y[80]=8
y[81]=11
y[82]=5
y[83]=2
y[84]=7
y[85]=9
y[86]=3
y[87]=2
y[88]=12
y[89]=9
y[90]=0
y[91]=12
y[92]=11
y[93]=6
y[94]=2
y[95]=10
y[96]=5
y[97]=10
y[98]=1
y[99]=6
y[100]=3
y[101]=6
y[102]=8
y[103]=5
y[104]=4
y[105]=1
y[106]=2
y[107]=4
