data/solutions/recovery/wellformed/intermediate/binding/wellformed_intermediate_instance73/65.log

Log started (V12.6.3.0) Fri Apr 20 17:50:43 2018

New value for default parallel thread count: 1

Problem '/tmp/tmpO07baA.pyomo.lp' read.
Read time = 0.03 sec. (2.01 ticks)

Problem name         : /tmp/tmpO07baA.pyomo.lp
Objective sense      : Minimize
Variables            :    1746  [Nneg: 1,  Binary: 1728,  General Integer: 17]
Objective nonzeros   :       1
Linear constraints   :     250  [Less: 124,  Equal: 126]
  Nonzeros           :  146077
  RHS nonzeros       :     109

Variables            : Min LB: 0.000000         Max UB: 1.000000       
Objective nonzeros   : Min   : 1.000000         Max   : 1.000000       
Linear constraints   :
  Nonzeros           : Min   : 1.000000         Max   : 1715.000       
  RHS nonzeros       : Min   : 1.000000         Max   : 1.000000       
Tried aggregator 2 times.
MIP Presolve eliminated 200 rows and 1430 columns.
Aggregator did 15 substitutions.
Reduced MIP has 35 rows, 301 columns, and 615 nonzeros.
Reduced MIP has 300 binaries, 1 generals, 0 SOSs, and 0 indicators.
Presolve time = 0.01 sec. (9.49 ticks)
Found incumbent of value 16646.000000 after 0.01 sec. (13.04 ticks)
Probing time = 0.00 sec. (0.38 ticks)
Tried aggregator 1 time.
Reduced MIP has 35 rows, 301 columns, and 615 nonzeros.
Reduced MIP has 300 binaries, 1 generals, 0 SOSs, and 0 indicators.
Presolve time = 0.00 sec. (0.57 ticks)
Probing time = 0.00 sec. (0.38 ticks)
Clique table members: 20.
MIP emphasis: balance optimality and feasibility.
MIP search method: dynamic search.
Parallel mode: none, using 1 thread.
Root relaxation solution time = 0.00 sec. (0.27 ticks)

        Nodes                                         Cuts/
   Node  Left     Objective  IInf  Best Integer    Best Bound    ItCnt     Gap

*     0+    0                        16646.0000     4419.0000            73.45%
      0     0     4419.0000    12    16646.0000     4419.0000       25   73.45%
*     0+    0                         4419.0000     4419.0000             0.00%
      0     0        cutoff           4419.0000     4419.0000       25    0.00%
Elapsed time = 0.01 sec. (15.13 ticks, tree = 0.01 MB, solutions = 2)

Root node processing (before b&c):
  Real time             =    0.01 sec. (15.19 ticks)
Sequential b&c:
  Real time             =    0.00 sec. (0.00 ticks)
                          ------------
Total (root+branch&cut) =    0.01 sec. (15.19 ticks)

Solution pool: 2 solutions saved.

MIP - Integer optimal solution:  Objective =  4.4190000000e+03
Solution time =    0.01 sec.  Iterations = 25  Nodes = 0
Deterministic time = 15.19 ticks  (1105.80 ticks/sec)


Incumbent solution written to file '/tmp/tmp7DcG4q.cplex.sol'.

Log started (V12.6.3.0) Fri Apr 20 17:53:44 2018

New value for default parallel thread count: 1

Problem '/tmp/tmpKmSfEm.pyomo.lp' read.
Read time = 0.03 sec. (2.01 ticks)

Problem name         : /tmp/tmpKmSfEm.pyomo.lp
Objective sense      : Minimize
Variables            :    1746  [Nneg: 1,  Binary: 1728,  General Integer: 17]
Objective nonzeros   :       1
Linear constraints   :     250  [Less: 124,  Equal: 126]
  Nonzeros           :  146077
  RHS nonzeros       :     109

Variables            : Min LB: 0.000000         Max UB: 1.000000       
Objective nonzeros   : Min   : 1.000000         Max   : 1.000000       
Linear constraints   :
  Nonzeros           : Min   : 1.000000         Max   : 1715.000       
  RHS nonzeros       : Min   : 1.000000         Max   : 1.000000       
Tried aggregator 2 times.
MIP Presolve eliminated 200 rows and 1430 columns.
Aggregator did 15 substitutions.
Reduced MIP has 35 rows, 301 columns, and 615 nonzeros.
Reduced MIP has 300 binaries, 1 generals, 0 SOSs, and 0 indicators.
Presolve time = 0.01 sec. (9.49 ticks)
Found incumbent of value 16646.000000 after 0.01 sec. (13.04 ticks)
Probing time = 0.00 sec. (0.38 ticks)
Tried aggregator 1 time.
Reduced MIP has 35 rows, 301 columns, and 615 nonzeros.
Reduced MIP has 300 binaries, 1 generals, 0 SOSs, and 0 indicators.
Presolve time = 0.00 sec. (0.57 ticks)
Probing time = 0.00 sec. (0.38 ticks)
Clique table members: 20.
MIP emphasis: balance optimality and feasibility.
MIP search method: dynamic search.
Parallel mode: none, using 1 thread.
Root relaxation solution time = 0.00 sec. (0.27 ticks)

        Nodes                                         Cuts/
   Node  Left     Objective  IInf  Best Integer    Best Bound    ItCnt     Gap

*     0+    0                        16646.0000     4419.0000            73.45%
      0     0     4419.0000    12    16646.0000     4419.0000       25   73.45%
*     0+    0                         4419.0000     4419.0000             0.00%
      0     0        cutoff           4419.0000     4419.0000       25    0.00%
Elapsed time = 0.01 sec. (15.13 ticks, tree = 0.01 MB, solutions = 2)

Root node processing (before b&c):
  Real time             =    0.01 sec. (15.19 ticks)
Sequential b&c:
  Real time             =    0.00 sec. (0.00 ticks)
                          ------------
Total (root+branch&cut) =    0.01 sec. (15.19 ticks)

Solution pool: 2 solutions saved.

MIP - Integer optimal solution:  Objective =  4.4190000000e+03
Solution time =    0.01 sec.  Iterations = 25  Nodes = 0
Deterministic time = 15.19 ticks  (1069.84 ticks/sec)


Incumbent solution written to file '/tmp/tmpkI0Ywy.cplex.sol'.
